\ENCODING=ISO-8859-1
\Problem name: IloCplex

Minimize
 obj1: 778 x1 + 778 x2 + 94 x3 + 94 x4 + 288 x5 + 288 x6 + 948 x7 + 948 x8
       + 740 x9 + 740 x10 + 902 x11 + 902 x12 + 270 x13 + 270 x14 + 578 x15
       + 578 x16 + 772 x17 + 772 x18 + 751 x19 + 751 x20 + 395 x21 + 395 x22
       + 893 x23 + 893 x24 + 640 x25 + 640 x26 + 46 x27 + 46 x28 + 152 x29
       + 152 x30 + 714 x31 + 714 x32 + 847 x33 + 847 x34 + 765 x35 + 765 x36
       + 408 x37 + 408 x38 + 67 x39 + 67 x40 + 931 x41 + 931 x42 + 716 x43
       + 716 x44
Subject To
 c1:  x45 + x46 + x47 + x48 + x49 + x50 + x51 + x52 + x53 + x54  = 1
 c2:  x55 + x56 + x57 + x58 + x59 + x60 + x61 + x62 + x63 + x64 + x65  = 5
 c3:  6 x45 + x66 - x67 <= 5
 c4:  - x66 + x67 + 6 x68 <= 5
 c5:  6 x46 + x66 - x69 <= 5
 c6:  - x66 + x69 + 6 x70 <= 5
 c7:  6 x47 + x66 - x71 <= 5
 c8:  - x66 + x71 + 6 x72 <= 5
 c9:  6 x48 + x66 - x73 <= 5
 c10: - x66 + x73 + 6 x74 <= 5
 c11: 6 x49 + x66 - x75 <= 5
 c12: - x66 + x75 + 6 x76 <= 5
 c13: 6 x50 + x66 - x77 <= 5
 c14: - x66 + x77 + 6 x78 <= 5
 c15: 6 x51 + x66 - x79 <= 5
 c16: - x66 + x79 + 6 x80 <= 5
 c17: 6 x52 + x66 - x81 <= 5
 c18: - x66 + x81 + 6 x82 <= 5
 c19: 6 x53 + x66 - x83 <= 5
 c20: - x66 + x83 + 6 x84 <= 5
 c21: 6 x54 + x66 - x85 <= 5
 c22: - x66 + x85 + 6 x86 <= 5
 c23: 6 x1 + x67 - x69 <= 5
 c24: 6 x2 - x67 + x69 <= 5
 c25: 6 x3 + x67 - x71 <= 5
 c26: 6 x4 - x67 + x71 <= 5
 c27: 6 x5 + x67 - x73 <= 5
 c28: 6 x6 - x67 + x73 <= 5
 c29: 6 x7 + x67 - x81 <= 5
 c30: 6 x8 - x67 + x81 <= 5
 c31: 6 x9 + x69 - x73 <= 5
 c32: 6 x10 - x69 + x73 <= 5
 c33: 6 x11 + x69 - x83 <= 5
 c34: 6 x12 - x69 + x83 <= 5
 c35: 6 x13 + x71 - x77 <= 5
 c36: 6 x14 - x71 + x77 <= 5
 c37: 6 x15 + x71 - x79 <= 5
 c38: 6 x16 - x71 + x79 <= 5
 c39: 6 x17 + x73 - x75 <= 5
 c40: 6 x18 - x73 + x75 <= 5
 c41: 6 x19 + x73 - x79 <= 5
 c42: 6 x20 - x73 + x79 <= 5
 c43: 6 x21 + x73 - x83 <= 5
 c44: 6 x22 - x73 + x83 <= 5
 c45: 6 x23 + x75 - x83 <= 5
 c46: 6 x24 - x75 + x83 <= 5
 c47: 6 x25 + x75 - x85 <= 5
 c48: 6 x26 - x75 + x85 <= 5
 c49: 6 x27 + x77 - x79 <= 5
 c50: 6 x28 - x77 + x79 <= 5
 c51: 6 x29 + x77 - x81 <= 5
 c52: 6 x30 - x77 + x81 <= 5
 c53: 6 x31 + x77 - x83 <= 5
 c54: 6 x32 - x77 + x83 <= 5
 c55: 6 x33 + x77 - x85 <= 5
 c56: 6 x34 - x77 + x85 <= 5
 c57: 6 x35 + x79 - x81 <= 5
 c58: 6 x36 - x79 + x81 <= 5
 c59: 6 x37 + x79 - x83 <= 5
 c60: 6 x38 - x79 + x83 <= 5
 c61: 6 x39 + x79 - x85 <= 5
 c62: 6 x40 - x79 + x85 <= 5
 c63: 6 x41 + x81 - x83 <= 5
 c64: 6 x42 - x81 + x83 <= 5
 c65: 6 x43 + x83 - x85 <= 5
 c66: 6 x44 - x83 + x85 <= 5
 c67: - x55 + x68 + x70 + x72 + x74 + x76 + x78 + x80 + x82 + x84 + x86  = 0
 c68: x2 + x4 + x6 + x8 + x45 - x56  = 0
 c69: x1 + x10 + x12 + x46 - x57  = 0
 c70: x3 + x14 + x16 + x47 - x58  = 0
 c71: x5 + x9 + x18 + x20 + x22 + x48 - x59  = 0
 c72: x17 + x24 + x26 + x49 - x60  = 0
 c73: x13 + x28 + x30 + x32 + x34 + x50 - x61  = 0
 c74: x15 + x19 + x27 + x36 + x38 + x40 + x51 - x62  = 0
 c75: x7 + x29 + x35 + x42 + x52 - x63  = 0
 c76: x11 + x21 + x23 + x31 + x37 + x41 + x44 + x53 - x64  = 0
 c77: x25 + x33 + x39 + x43 + x54 - x65  = 0
 c78: x1 + x3 + x5 + x7 - 4 x56 + x68 <= 0
 c79: x2 + x9 + x11 - 4 x57 + x70 <= 0
 c80: x4 + x13 + x15 - 4 x58 + x72 <= 0
 c81: x6 + x10 + x17 + x19 + x21 - 4 x59 + x74 <= 0
 c82: x18 + x23 + x25 - 4 x60 + x76 <= 0
 c83: x14 + x27 + x29 + x31 + x33 - 4 x61 + x78 <= 0
 c84: x16 + x20 + x28 + x35 + x37 + x39 - 4 x62 + x80 <= 0
 c85: x8 + x30 + x36 + x41 - 4 x63 + x82 <= 0
 c86: x12 + x22 + x24 + x32 + x38 + x42 + x43 - 4 x64 + x84 <= 0
 c87: x26 + x34 + x40 + x44 - 4 x65 + x86 <= 0
Bounds
 0 <= x1 <= 1
 0 <= x2 <= 1
 0 <= x3 <= 1
 0 <= x4 <= 1
 0 <= x5 <= 1
 0 <= x6 <= 1
 0 <= x7 <= 1
 0 <= x8 <= 1
 0 <= x9 <= 1
 0 <= x10 <= 1
 0 <= x11 <= 1
 0 <= x12 <= 1
 0 <= x13 <= 1
 0 <= x14 <= 1
 0 <= x15 <= 1
 0 <= x16 <= 1
 0 <= x17 <= 1
 0 <= x18 <= 1
 0 <= x19 <= 1
 0 <= x20 <= 1
 0 <= x21 <= 1
 0 <= x22 <= 1
 0 <= x23 <= 1
 0 <= x24 <= 1
 0 <= x25 <= 1
 0 <= x26 <= 1
 0 <= x27 <= 1
 0 <= x28 <= 1
 0 <= x29 <= 1
 0 <= x30 <= 1
 0 <= x31 <= 1
 0 <= x32 <= 1
 0 <= x33 <= 1
 0 <= x34 <= 1
 0 <= x35 <= 1
 0 <= x36 <= 1
 0 <= x37 <= 1
 0 <= x38 <= 1
 0 <= x39 <= 1
 0 <= x40 <= 1
 0 <= x41 <= 1
 0 <= x42 <= 1
 0 <= x43 <= 1
 0 <= x44 <= 1
 0 <= x45 <= 1
 0 <= x46 <= 1
 0 <= x47 <= 1
 0 <= x48 <= 1
 0 <= x49 <= 1
 0 <= x50 <= 1
 0 <= x51 <= 1
 0 <= x52 <= 1
 0 <= x53 <= 1
 0 <= x54 <= 1
 0 <= x55 <= 1
 0 <= x56 <= 1
 0 <= x57 <= 1
 0 <= x58 <= 1
 0 <= x59 <= 1
 0 <= x60 <= 1
 0 <= x61 <= 1
 0 <= x62 <= 1
 0 <= x63 <= 1
 0 <= x64 <= 1
 0 <= x65 <= 1
      x66 = 0
 1 <= x67 <= 5
 0 <= x68 <= 1
 1 <= x69 <= 5
 0 <= x70 <= 1
 1 <= x71 <= 5
 0 <= x72 <= 1
 1 <= x73 <= 5
 0 <= x74 <= 1
 1 <= x75 <= 5
 0 <= x76 <= 1
 1 <= x77 <= 5
 0 <= x78 <= 1
 1 <= x79 <= 5
 0 <= x80 <= 1
 1 <= x81 <= 5
 0 <= x82 <= 1
 1 <= x83 <= 5
 0 <= x84 <= 1
 1 <= x85 <= 5
 0 <= x86 <= 1
Binaries
 x1  x2  x3  x4  x5  x6  x7  x8  x9  x10  x11  x12  x13  x14  x15  x16  x17 
 x18  x19  x20  x21  x22  x23  x24  x25  x26  x27  x28  x29  x30  x31  x32 
 x33  x34  x35  x36  x37  x38  x39  x40  x41  x42  x43  x44  x45  x46  x47 
 x48  x49  x50  x51  x52  x53  x54  x55  x56  x57  x58  x59  x60  x61  x62 
 x63  x64  x65  x68  x70  x72  x74  x76  x78  x80  x82  x84  x86 
Generals
 x66  x67  x69  x71  x73  x75  x77  x79  x81  x83  x85 
End
